! wB97X-3c
! OPT
* xyzfile 0 1 guess.xyz
