! wB97X-3c
! OPT
* xyz 0 2
 O                  0.00000000    0.00000000    0.10829200 
 H                  0.00000000    0.00000000   -0.86633400 
*