% MaxCore 10000
! PAL8
! REVDSD-PBEP86-D4/2021 def2-TZVPP def2-TZVPP/c
! Opt
%scf
   Convergence    VeryTight
end
%geom
   MaxIter        100
end
* xyzfile 0 2 path_init_forw.xyz
