! PAL8
! wB97X-3c
! TIGHT-NEB-TS  # NEB calculation with tighter convergence criteria plus 
                # subsequent TS optimization
! FREQ

%NEB 
 NEB_END_XYZFILE "product.xyz" 
END

* xyzfile 0 2 reactant.xyz
