! wB97X-3c
! OPT
* xyz 0 2
 C                 -0.61880100    1.33440400   -0.21215800 
 C                 -0.82827700    0.20339400    0.45527500 
 H                 -0.40518200    2.26356200    0.29925400 
 H                 -0.67421400    1.37294700   -1.29406000 
 C                 -1.13806300   -1.12435400   -0.16095200 
 H                 -2.08567700   -1.51537500    0.21754200 
 H                 -1.20326800   -1.05861900   -1.24700200 
 H                 -0.36868900   -1.85730300    0.09389300 
 H                 -0.77224300    0.22197900    1.54008400 
 O                  2.43052800   -0.26483000   -0.00532100 
 H                  1.57589700    0.21078700   -0.06013200
*