! wB97X-3c
! OPT
* xyzfile 0 2 guess.xyz
